
******************************************************************************
This program contains Ipopt, a library for large-scale nonlinear optimization.
 Ipopt is released as open source code under the Eclipse Public License (EPL).
         For more information visit http://projects.coin-or.org/Ipopt

This version of Ipopt was compiled from source code available at
    https://github.com/IDAES/Ipopt as part of the Institute for the Design of
    Advanced Energy Systems Process Systems Engineering Framework (IDAES PSE
    Framework) Copyright (c) 2018-2019. See https://github.com/IDAES/idaes-pse.

This version of Ipopt was compiled using HSL, a collection of Fortran codes
    for large-scale scientific computation.  All technical papers, sales and
    publicity material resulting from use of the HSL codes within IPOPT must
    contain the following acknowledgement:
        HSL, a collection of Fortran codes for large-scale scientific
        computation. See http://www.hsl.rl.ac.uk.
******************************************************************************

This is Ipopt version 3.13.2, running with linear solver ma27.

Number of nonzeros in equality constraint Jacobian...:      808
Number of nonzeros in inequality constraint Jacobian.:        0
Number of nonzeros in Lagrangian Hessian.............:      702

Total number of variables............................:      351
                     variables with only lower bounds:      108
                variables with lower and upper bounds:      189
                     variables with only upper bounds:        0
Total number of equality constraints.................:      350
Total number of inequality constraints...............:        0
        inequality constraints with only lower bounds:        0
   inequality constraints with lower and upper bounds:        0
        inequality constraints with only upper bounds:        0

iter    objective    inf_pr   inf_du lg(mu)  ||d||  lg(rg) alpha_du alpha_pr  ls
   0  0.0000000e+00 4.82e-01 3.33e-16  -1.0 0.00e+00    -  0.00e+00 0.00e+00   0
   1  7.0380606e-01 3.99e-01 3.52e+04  -1.0 2.87e+05    -  4.07e-01 1.81e-01h  1
   2  7.5093234e-01 3.96e-01 3.51e+04  -1.0 2.79e+05    -  7.13e-01 7.00e-03h  1
   3  3.2818301e+01 6.44e-02 3.02e+04  -1.0 3.24e+05    -  7.11e-01 9.90e-01h  1
   4  4.4774247e+01 2.65e-03 2.41e+03  -1.0 6.51e+04    -  9.32e-01 9.90e-01h  1
   5  4.5250058e+01 3.00e-05 1.02e+02  -1.0 2.49e+03    -  9.89e-01 9.90e-01h  1
   6  4.5250273e+01 2.98e-05 1.21e+07  -1.0 2.09e+02    -  9.90e-01 7.73e-03f  8
   7  4.5257236e+01 2.80e-05 2.28e+07  -1.0 9.93e+02    -  9.90e-01 6.19e-02f  5
   8  4.5370667e+01 1.13e-04 3.60e+05  -1.0 1.03e+03    -  1.00e+00 9.90e-01H  1
   9  4.5366719e+01 1.58e-06 1.32e+07  -1.0 3.72e+01    -  1.00e+00 9.90e-01h  1
iter    objective    inf_pr   inf_du lg(mu)  ||d||  lg(rg) alpha_du alpha_pr  ls
  10  4.5366870e+01 1.76e-08 1.32e+09  -1.0 1.40e+00    -  1.00e+00 9.90e-01h  1
  11  4.5366871e+01 1.76e-10 1.32e+11  -1.0 1.42e-02    -  1.00e+00 9.90e-01h  1
In iteration 11, 27 Slacks too small, adjusting variable bounds
  12  4.5366871e+01 5.86e-12 1.32e+13  -1.0 1.42e-04    -  1.00e+00 9.90e-01h  1
  13  4.5366871e+01 3.52e-13 1.17e-01  -1.0 1.41e-06    -  1.00e+00 1.00e+00h  1
  14  4.5366868e+01 2.08e-12 1.34e+13  -9.0 1.15e+03    -  9.97e-01 2.69e-05f 16
  15  4.5366865e+01 3.03e-12 1.35e+13  -9.0 1.02e+03    -  9.98e-01 3.05e-05f 16
  16  4.5366858e+01 4.42e-12 1.35e+13  -9.0 1.02e+03    -  1.00e+00 6.10e-05f 15
  17  4.5366858e+01 4.53e-12 1.35e+13  -9.0 1.02e+03    -  1.00e+00 1.91e-06f 20
  18  4.5366856e+01 4.82e-12 1.35e+13  -9.0 1.02e+03    -  1.00e+00 1.53e-05f 17
  19  4.5256506e+01 9.95e-04 2.16e+06  -9.0 1.02e+03    -  1.00e+00 1.00e+00f  1
iter    objective    inf_pr   inf_du lg(mu)  ||d||  lg(rg) alpha_du alpha_pr  ls
  20  4.5254702e+01 1.80e-09 5.11e-04  -9.0 1.64e+01    -  1.00e+00 1.00e+00h  1
  21  4.5254702e+01 2.77e-12 1.46e-11  -9.0 1.81e-04    -  1.00e+00 1.00e+00h  1

Number of Iterations....: 21

                                   (scaled)                 (unscaled)
Objective...............:   4.5254702131302992e+01    4.5254702131302992e+01
Dual infeasibility......:   1.4551915228366852e-11    1.4551915228366852e-11
Constraint violation....:   2.7742252939333412e-12    2.7742252939333412e-12
Complementarity.........:   9.0909090909096421e-10    9.0909090909096421e-10
Overall NLP error.......:   1.3491395536938370e-11    9.0909090909096421e-10


Number of objective function evaluations             = 135
Number of objective gradient evaluations             = 22
Number of equality constraint evaluations            = 135
Number of inequality constraint evaluations          = 0
Number of equality constraint Jacobian evaluations   = 22
Number of inequality constraint Jacobian evaluations = 0
Number of Lagrangian Hessian evaluations             = 21
Total CPU secs in IPOPT (w/o function evaluations)   =      0.049
Total CPU secs in NLP function evaluations           =      1.073

EXIT: Optimal Solution Found.
